(declare-sort $$unsorted 0)
(declare-fun tptp.op ($$unsorted $$unsorted) $$unsorted)
(assert (forall ((X0 $$unsorted) (X1 $$unsorted) (X2 $$unsorted) (X3 $$unsorted)) (= X0 (tptp.op (tptp.op X0 X1) (tptp.op (tptp.op X1 X2) X3)))))
(assert (not (forall ((X0 $$unsorted) (X1 $$unsorted) (X2 $$unsorted) (X3 $$unsorted)) (= X0 (tptp.op (tptp.op X0 (tptp.op (tptp.op X1 X0) X2)) X1)))))
(set-info :filename Equation1663_implies_Equation2463)
(check-sat-assuming ( true ))
